TCS_Benchmarks/redos_fix/regexlib2_output_distinct_2188_2187_40_0.txt
1[0-9]{0,2}2[0-4][0-9]
1[0-9]{0,2}.*